Maximize
  - 2.9605200077124 edge_0_1_0_0 - 3.6847595578288 edge_0_2_0_0
   - 0.02301337909638 edge_0_3_0_0 - 3.996721011901 edge_0_4_0_0
   - 2.8517147513595 edge_0_7_0_0 - 2.4840306881122 edge_0_8_0_0
   - 2.6232778790784 edge_0_9_0_0 - 1.88367 edge_0_12_0_0
   - 3.1657162327932 edge_0_14_0_0 + 0.4997726698342849 edge_1_2_0_0
   + 1.038576966325358 edge_1_3_0_0 + 0.00295183945153533 edge_1_4_0_0
   - 1.873498860045625 edge_1_5_0_0 - 0.4484601552347002 edge_1_7_0_0
   - 0.2434647376031698 edge_1_8_0_0 - 0.4913071512620368 edge_1_9_0_0
   - 0.3346214624563303 edge_1_10_0_0 - 1.030793201728945 edge_1_12_0_0
   - 2.0834733321273 edge_1_14_0_0 - 1.857413421403926 edge_1_15_0_0
   - 1.509373881708369 edge_1_16_0_0 - 0.941527304897166 edge_1_17_0_0
   + 0.5580870442523165 edge_2_1_0_0 + 1.028932582071614 edge_2_3_0_0
   + 0.8442731427278107 edge_2_4_0_0 - 0.3432497735221409 edge_2_5_0_0
   - 0.0966743180669486 edge_2_6_0_0 + 1.052332699181675 edge_2_7_0_0
   + 2.402094263975927 edge_2_8_0_0 + 0.4794730591561747 edge_2_9_0_0
   + 0.5098484417329591 edge_2_10_0_0 + 0.5058861984580419 edge_2_11_0_0
   + 0.5836929162104113 edge_2_12_0_0 - 0.0932152587941584 edge_2_14_0_0
   - 0.6391757832014472 edge_2_15_0_0 + 0.0717105198816685 edge_2_16_0_0
   + 1.543937655475735 edge_2_17_0_0 + 2.375111579927627 edge_3_1_0_0
   + 2.759662994479401 edge_3_2_0_0 + 3.024422746728249 edge_3_4_0_0
   + 0.7029177476759159 edge_3_5_0_0 - 0.0658691723610594 edge_3_6_0_0
   + 2.22211217815284 edge_3_7_0_0 + 1.73081292829693 edge_3_8_0_0
   + 2.115957918793201 edge_3_9_0_0 + 2.395633559616561 edge_3_10_0_0
   + 3.511792449028098 edge_3_11_0_0 + 2.930135500607 edge_3_12_0_0
   + 1.193905053967376 edge_3_14_0_0 + 0.1481661802673577 edge_3_15_0_0
   + 1.177681551644914 edge_3_16_0_0 + 2.99204981838048 edge_3_17_0_0
   + 0.3384540803359353 edge_4_1_0_0 + 1.6226583433474 edge_4_2_0_0
   + 0.0121102684615674 edge_4_3_0_0 + 0.00551947979023571 edge_4_5_0_0
   + 1.51775915707056 edge_4_7_0_0 + 0.8211478550038032 edge_4_8_0_0
   + 0.2207810244195606 edge_4_9_0_0 - 0.3403740970833758 edge_4_11_0_0
   - 0.12824642578779 edge_4_12_0_0 + 0.5424258063829763 edge_4_14_0_0
   - 0.7882031016422438 edge_4_15_0_0 - 0.7613265870619859 edge_4_16_0_0
   - 0.2064668412531557 edge_5_2_0_0 - 1.128193537818438 edge_5_3_0_0
   - 0.1835420311451565 edge_5_4_0_0 + 0.8490138090899261 edge_5_6_0_0
   + 1.120046806346087 edge_5_7_0_0 - 0.010601257172541 edge_5_8_0_0
   + 0.059857786634678 edge_5_9_0_0 + 0.0703892019474166 edge_5_10_0_0
   + 0.5800937820157622 edge_5_11_0_0 + 0.33089905367386 edge_5_12_0_0
   + 0.2138459102036361 edge_5_14_0_0 - 0.0298231852070445 edge_5_15_0_0
   + 0.3637216053990232 edge_5_16_0_0 + 0.1987971936174294 edge_6_5_0_0
   - 0.2670692009370063 edge_6_11_0_0 - 0.866550201827094 edge_6_12_0_0
   - 0.4053906129763897 edge_7_1_0_0 + 0.2607450250692887 edge_7_2_0_0
   - 0.1253569174023159 edge_7_3_0_0 + 0.3005356673169386 edge_7_4_0_0
   + 2.814038657202901 edge_7_5_0_0 + 3.918221305635783 edge_7_6_0_0
   + 0.4582838911857919 edge_7_8_0_0 + 1.008344636638232 edge_7_9_0_0
   + 2.348725906410805 edge_7_10_0_0 + 2.284812305593628 edge_7_11_0_0
   + 1.04801772865195 edge_7_12_0_0 + 1.525447544026262 edge_7_14_0_0
   + 0.15835193349216 edge_7_15_0_0 + 0.5726826926239681 edge_7_16_0_0
   + 0.9423180625762475 edge_7_17_0_0 + 0.1219065626241532 edge_8_1_0_0
   + 0.5803775054175692 edge_8_2_0_0 + 2.141578929383151 edge_8_3_0_0
   + 0.6053395804718111 edge_8_4_0_0 + 0.3726709610063768 edge_8_5_0_0
   + 0.0169708583075862 edge_8_6_0_0 + 1.180438976970733 edge_8_7_0_0
   + 0.7322137573144823 edge_8_9_0_0 + 0.6170441346777096 edge_8_10_0_0
   + 0.4519390207153667 edge_8_11_0_0 + 0.4934447062082999 edge_8_12_0_0
   - 0.0459162035848727 edge_8_14_0_0 - 0.3648277445741082 edge_8_15_0_0
   - 0.1489115463648932 edge_8_16_0_0 + 0.3164097665896426 edge_9_1_0_0
   + 0.523016384232098 edge_9_2_0_0 + 0.3177130676015001 edge_9_3_0_0
   + 0.5502028619866861 edge_9_4_0_0 + 0.4719073574539634 edge_9_5_0_0
   + 0.2745494608125404 edge_9_6_0_0 + 1.464872516587207 edge_9_7_0_0
   + 2.811027334079037 edge_9_8_0_0 + 0.6817564175832945 edge_9_10_0_0
   + 0.6971913292427361 edge_9_11_0_0 + 0.7221761321466 edge_9_12_0_0
   + 0.7991686672379134 edge_9_14_0_0 - 0.1007080776509867 edge_9_15_0_0
   + 0.1444386481397992 edge_9_16_0_0 + 0.7830483589813098 edge_9_17_0_0
   - 1.702267605802846 edge_10_2_0_0 - 0.8054271113396959 edge_10_7_0_0
   - 0.3537177195497381 edge_10_11_0_0 - 0.66209256660738 edge_10_12_0_0
   - 0.6133791737218784 edge_10_15_0_0 - 1.55912005020212 edge_11_1_0_0
   - 1.378157558860198 edge_11_2_0_0 - 1.205861144800176 edge_11_4_0_0
   - 0.2226648346982928 edge_11_5_0_0 - 0.5251126096669507 edge_11_7_0_0
   - 0.9331756069653414 edge_11_8_0_0 - 0.6656976758250159 edge_11_9_0_0
   + 0.00818238052941525 edge_11_10_0_0 + 0.060148584861519 edge_11_12_0_0
   - 0.4177746536417452 edge_11_14_0_0 + 0.0803670574800099 edge_11_15_0_0
   - 0.1018725646622364 edge_11_16_0_0 + 0.5512928904933917 edge_12_1_0_0
   + 0.2012414524417762 edge_12_2_0_0 + 0.8084901287015652 edge_12_3_0_0
   - 1.1921253707965 edge_12_4_0_0 + 0.2829038506230138 edge_12_5_0_0
   + 0.5073179906364933 edge_12_6_0_0 + 1.066885817438144 edge_12_7_0_0
   + 0.2480372134422467 edge_12_8_0_0 + 0.4837373826193243 edge_12_9_0_0
   + 0.7083043089920942 edge_12_10_0_0 + 0.4579305563893303 edge_12_11_0_0
   + 0.47443608830176 edge_12_13_0_0 + 3.1056583229436 edge_12_14_0_0
   + 1.346423427474691 edge_12_15_0_0 + 1.7024358581584 edge_12_16_0_0
   + 1.310283757108 edge_12_17_0_0 - 0.51658537453776 edge_13_15_0_0
   - 0.6336324017207281 edge_13_16_0_0 - 0.4484327389977422 edge_13_17_0_0
   - 0.7091796337765105 edge_14_1_0_0 - 0.248033568998927 edge_14_2_0_0
   - 0.4561541061132497 edge_14_3_0_0 - 0.7797344143342089 edge_14_4_0_0
   + 0.2537599676213735 edge_14_5_0_0 + 0.7091367709179772 edge_14_6_0_0
   + 0.2510392045174554 edge_14_7_0_0 - 0.4312299768704526 edge_14_8_0_0
   - 0.1804072112958066 edge_14_9_0_0 + 0.5890665539577766 edge_14_10_0_0
   + 0.5271173588049766 edge_14_11_0_0 + 1.4186083118541 edge_14_12_0_0
   + 4.141896482158762 edge_14_13_0_0 + 1.0131887943039 edge_14_15_0_0
   + 1.924765796067977 edge_14_16_0_0 + 2.041663404701657 edge_14_17_0_0
   - 0.3969651452377846 edge_15_1_0_0 - 0.3031321722205734 edge_15_10_0_0
   + 0.4966927562966695 edge_15_11_0_0 + 1.149848062953711 edge_15_14_0_0
   + 1.655211148351922 edge_15_16_0_0 + 0.421493697275626 edge_15_17_0_0
   - 0.4350378076366019 edge_16_2_0_0 - 1.200718417545533 edge_16_3_0_0
   - 1.0338411880946 edge_16_4_0_0 - 0.0544739941325852 edge_16_5_0_0
   - 0.4963472374443071 edge_16_6_0_0 - 0.3311582452032479 edge_16_7_0_0
   - 0.1847737460670718 edge_16_8_0_0 - 0.2784871051546665 edge_16_9_0_0
   + 0.4920870663791568 edge_16_10_0_0
   - 6.5306947605362094e-04 edge_16_11_0_0
   + 0.4208939022480527 edge_16_12_0_0 + 0.6365295751820091 edge_16_13_0_0
   + 0.2727521807817186 edge_16_14_0_0 + 3.19898676343 edge_16_15_0_0
   + 1.502680709769428 edge_16_17_0_0 - 0.1948071722937925 edge_17_1_0_0
   - 0.4974839250454578 edge_17_2_0_0 - 0.4951078805501193 edge_17_3_0_0
   - 0.1429083240345475 edge_17_5_0_0 - 0.1577135969365451 edge_17_7_0_0
   - 0.1916082184650645 edge_17_8_0_0 - 0.0837877741021846 edge_17_9_0_0
   - 0.0495116707974678 edge_17_10_0_0 + 0.6335005366919053 edge_17_13_0_0
   + 0.2948636996033019 edge_17_14_0_0 + 0.8470519593529495 edge_17_15_0_0
   + 0.8262470956714563 edge_17_16_0_0
Subject To
 one_parent_1: edge_0_1_0_0 + edge_2_1_0_0 + edge_3_1_0_0 + edge_4_1_0_0
   + edge_7_1_0_0 + edge_8_1_0_0 + edge_9_1_0_0 + edge_11_1_0_0
   + edge_12_1_0_0 + edge_14_1_0_0 + edge_15_1_0_0 + edge_17_1_0_0 = 1
 consume_one_flow_unit_1: flow_0_1_0_0 - flow_1_2_0_0 - flow_1_3_0_0
   - flow_1_4_0_0 - flow_1_5_0_0 - flow_1_7_0_0 - flow_1_8_0_0
   - flow_1_9_0_0 - flow_1_10_0_0 - flow_1_12_0_0 - flow_1_14_0_0
   - flow_1_15_0_0 - flow_1_16_0_0 - flow_1_17_0_0 + flow_2_1_0_0
   + flow_3_1_0_0 + flow_4_1_0_0 + flow_7_1_0_0 + flow_8_1_0_0
   + flow_9_1_0_0 + flow_11_1_0_0 + flow_12_1_0_0 + flow_14_1_0_0
   + flow_15_1_0_0 + flow_17_1_0_0 = 1
 one_parent_2: edge_0_2_0_0 + edge_1_2_0_0 + edge_3_2_0_0 + edge_4_2_0_0
   + edge_5_2_0_0 + edge_7_2_0_0 + edge_8_2_0_0 + edge_9_2_0_0
   + edge_10_2_0_0 + edge_11_2_0_0 + edge_12_2_0_0 + edge_14_2_0_0
   + edge_16_2_0_0 + edge_17_2_0_0 = 1
 consume_one_flow_unit_2: flow_0_2_0_0 + flow_1_2_0_0 - flow_2_1_0_0
   - flow_2_3_0_0 - flow_2_4_0_0 - flow_2_5_0_0 - flow_2_6_0_0
   - flow_2_7_0_0 - flow_2_8_0_0 - flow_2_9_0_0 - flow_2_10_0_0
   - flow_2_11_0_0 - flow_2_12_0_0 - flow_2_14_0_0 - flow_2_15_0_0
   - flow_2_16_0_0 - flow_2_17_0_0 + flow_3_2_0_0 + flow_4_2_0_0
   + flow_5_2_0_0 + flow_7_2_0_0 + flow_8_2_0_0 + flow_9_2_0_0
   + flow_10_2_0_0 + flow_11_2_0_0 + flow_12_2_0_0 + flow_14_2_0_0
   + flow_16_2_0_0 + flow_17_2_0_0 = 1
 one_parent_3: edge_0_3_0_0 + edge_1_3_0_0 + edge_2_3_0_0 + edge_4_3_0_0
   + edge_5_3_0_0 + edge_7_3_0_0 + edge_8_3_0_0 + edge_9_3_0_0
   + edge_12_3_0_0 + edge_14_3_0_0 + edge_16_3_0_0 + edge_17_3_0_0 = 1
 consume_one_flow_unit_3: flow_0_3_0_0 + flow_1_3_0_0 + flow_2_3_0_0
   - flow_3_1_0_0 - flow_3_2_0_0 - flow_3_4_0_0 - flow_3_5_0_0
   - flow_3_6_0_0 - flow_3_7_0_0 - flow_3_8_0_0 - flow_3_9_0_0
   - flow_3_10_0_0 - flow_3_11_0_0 - flow_3_12_0_0 - flow_3_14_0_0
   - flow_3_15_0_0 - flow_3_16_0_0 - flow_3_17_0_0 + flow_4_3_0_0
   + flow_5_3_0_0 + flow_7_3_0_0 + flow_8_3_0_0 + flow_9_3_0_0
   + flow_12_3_0_0 + flow_14_3_0_0 + flow_16_3_0_0 + flow_17_3_0_0 = 1
 one_parent_4: edge_0_4_0_0 + edge_1_4_0_0 + edge_2_4_0_0 + edge_3_4_0_0
   + edge_5_4_0_0 + edge_7_4_0_0 + edge_8_4_0_0 + edge_9_4_0_0
   + edge_11_4_0_0 + edge_12_4_0_0 + edge_14_4_0_0 + edge_16_4_0_0 = 1
 consume_one_flow_unit_4: flow_0_4_0_0 + flow_1_4_0_0 + flow_2_4_0_0
   + flow_3_4_0_0 - flow_4_1_0_0 - flow_4_2_0_0 - flow_4_3_0_0
   - flow_4_5_0_0 - flow_4_7_0_0 - flow_4_8_0_0 - flow_4_9_0_0
   - flow_4_11_0_0 - flow_4_12_0_0 - flow_4_14_0_0 - flow_4_15_0_0
   - flow_4_16_0_0 + flow_5_4_0_0 + flow_7_4_0_0 + flow_8_4_0_0
   + flow_9_4_0_0 + flow_11_4_0_0 + flow_12_4_0_0 + flow_14_4_0_0
   + flow_16_4_0_0 = 1
 one_parent_5: edge_1_5_0_0 + edge_2_5_0_0 + edge_3_5_0_0 + edge_4_5_0_0
   + edge_6_5_0_0 + edge_7_5_0_0 + edge_8_5_0_0 + edge_9_5_0_0
   + edge_11_5_0_0 + edge_12_5_0_0 + edge_14_5_0_0 + edge_16_5_0_0
   + edge_17_5_0_0 = 1
 consume_one_flow_unit_5: flow_1_5_0_0 + flow_2_5_0_0 + flow_3_5_0_0
   + flow_4_5_0_0 - flow_5_2_0_0 - flow_5_3_0_0 - flow_5_4_0_0
   - flow_5_6_0_0 - flow_5_7_0_0 - flow_5_8_0_0 - flow_5_9_0_0
   - flow_5_10_0_0 - flow_5_11_0_0 - flow_5_12_0_0 - flow_5_14_0_0
   - flow_5_15_0_0 - flow_5_16_0_0 + flow_6_5_0_0 + flow_7_5_0_0
   + flow_8_5_0_0 + flow_9_5_0_0 + flow_11_5_0_0 + flow_12_5_0_0
   + flow_14_5_0_0 + flow_16_5_0_0 + flow_17_5_0_0 = 1
 one_parent_6: edge_2_6_0_0 + edge_3_6_0_0 + edge_5_6_0_0 + edge_7_6_0_0
   + edge_8_6_0_0 + edge_9_6_0_0 + edge_12_6_0_0 + edge_14_6_0_0
   + edge_16_6_0_0 = 1
 consume_one_flow_unit_6: flow_2_6_0_0 + flow_3_6_0_0 + flow_5_6_0_0
   - flow_6_5_0_0 - flow_6_11_0_0 - flow_6_12_0_0 + flow_7_6_0_0
   + flow_8_6_0_0 + flow_9_6_0_0 + flow_12_6_0_0 + flow_14_6_0_0
   + flow_16_6_0_0 = 1
 one_parent_7: edge_0_7_0_0 + edge_1_7_0_0 + edge_2_7_0_0 + edge_3_7_0_0
   + edge_4_7_0_0 + edge_5_7_0_0 + edge_8_7_0_0 + edge_9_7_0_0
   + edge_10_7_0_0 + edge_11_7_0_0 + edge_12_7_0_0 + edge_14_7_0_0
   + edge_16_7_0_0 + edge_17_7_0_0 = 1
 consume_one_flow_unit_7: flow_0_7_0_0 + flow_1_7_0_0 + flow_2_7_0_0
   + flow_3_7_0_0 + flow_4_7_0_0 + flow_5_7_0_0 - flow_7_1_0_0
   - flow_7_2_0_0 - flow_7_3_0_0 - flow_7_4_0_0 - flow_7_5_0_0
   - flow_7_6_0_0 - flow_7_8_0_0 - flow_7_9_0_0 - flow_7_10_0_0
   - flow_7_11_0_0 - flow_7_12_0_0 - flow_7_14_0_0 - flow_7_15_0_0
   - flow_7_16_0_0 - flow_7_17_0_0 + flow_8_7_0_0 + flow_9_7_0_0
   + flow_10_7_0_0 + flow_11_7_0_0 + flow_12_7_0_0 + flow_14_7_0_0
   + flow_16_7_0_0 + flow_17_7_0_0 = 1
 one_parent_8: edge_0_8_0_0 + edge_1_8_0_0 + edge_2_8_0_0 + edge_3_8_0_0
   + edge_4_8_0_0 + edge_5_8_0_0 + edge_7_8_0_0 + edge_9_8_0_0
   + edge_11_8_0_0 + edge_12_8_0_0 + edge_14_8_0_0 + edge_16_8_0_0
   + edge_17_8_0_0 = 1
 consume_one_flow_unit_8: flow_0_8_0_0 + flow_1_8_0_0 + flow_2_8_0_0
   + flow_3_8_0_0 + flow_4_8_0_0 + flow_5_8_0_0 + flow_7_8_0_0
   - flow_8_1_0_0 - flow_8_2_0_0 - flow_8_3_0_0 - flow_8_4_0_0
   - flow_8_5_0_0 - flow_8_6_0_0 - flow_8_7_0_0 - flow_8_9_0_0
   - flow_8_10_0_0 - flow_8_11_0_0 - flow_8_12_0_0 - flow_8_14_0_0
   - flow_8_15_0_0 - flow_8_16_0_0 + flow_9_8_0_0 + flow_11_8_0_0
   + flow_12_8_0_0 + flow_14_8_0_0 + flow_16_8_0_0 + flow_17_8_0_0 = 1
 one_parent_9: edge_0_9_0_0 + edge_1_9_0_0 + edge_2_9_0_0 + edge_3_9_0_0
   + edge_4_9_0_0 + edge_5_9_0_0 + edge_7_9_0_0 + edge_8_9_0_0
   + edge_11_9_0_0 + edge_12_9_0_0 + edge_14_9_0_0 + edge_16_9_0_0
   + edge_17_9_0_0 = 1
 consume_one_flow_unit_9: flow_0_9_0_0 + flow_1_9_0_0 + flow_2_9_0_0
   + flow_3_9_0_0 + flow_4_9_0_0 + flow_5_9_0_0 + flow_7_9_0_0
   + flow_8_9_0_0 - flow_9_1_0_0 - flow_9_2_0_0 - flow_9_3_0_0
   - flow_9_4_0_0 - flow_9_5_0_0 - flow_9_6_0_0 - flow_9_7_0_0
   - flow_9_8_0_0 - flow_9_10_0_0 - flow_9_11_0_0 - flow_9_12_0_0
   - flow_9_14_0_0 - flow_9_15_0_0 - flow_9_16_0_0 - flow_9_17_0_0
   + flow_11_9_0_0 + flow_12_9_0_0 + flow_14_9_0_0 + flow_16_9_0_0
   + flow_17_9_0_0 = 1
 one_parent_10: edge_1_10_0_0 + edge_2_10_0_0 + edge_3_10_0_0
   + edge_5_10_0_0 + edge_7_10_0_0 + edge_8_10_0_0 + edge_9_10_0_0
   + edge_11_10_0_0 + edge_12_10_0_0 + edge_14_10_0_0 + edge_15_10_0_0
   + edge_16_10_0_0 + edge_17_10_0_0 = 1
 consume_one_flow_unit_10: flow_1_10_0_0 + flow_2_10_0_0 + flow_3_10_0_0
   + flow_5_10_0_0 + flow_7_10_0_0 + flow_8_10_0_0 + flow_9_10_0_0
   - flow_10_2_0_0 - flow_10_7_0_0 - flow_10_11_0_0 - flow_10_12_0_0
   - flow_10_15_0_0 + flow_11_10_0_0 + flow_12_10_0_0 + flow_14_10_0_0
   + flow_15_10_0_0 + flow_16_10_0_0 + flow_17_10_0_0 = 1
 one_parent_11: edge_2_11_0_0 + edge_3_11_0_0 + edge_4_11_0_0
   + edge_5_11_0_0 + edge_6_11_0_0 + edge_7_11_0_0 + edge_8_11_0_0
   + edge_9_11_0_0 + edge_10_11_0_0 + edge_12_11_0_0 + edge_14_11_0_0
   + edge_15_11_0_0 + edge_16_11_0_0 = 1
 consume_one_flow_unit_11: flow_2_11_0_0 + flow_3_11_0_0 + flow_4_11_0_0
   + flow_5_11_0_0 + flow_6_11_0_0 + flow_7_11_0_0 + flow_8_11_0_0
   + flow_9_11_0_0 + flow_10_11_0_0 - flow_11_1_0_0 - flow_11_2_0_0
   - flow_11_4_0_0 - flow_11_5_0_0 - flow_11_7_0_0 - flow_11_8_0_0
   - flow_11_9_0_0 - flow_11_10_0_0 - flow_11_12_0_0 - flow_11_14_0_0
   - flow_11_15_0_0 - flow_11_16_0_0 + flow_12_11_0_0 + flow_14_11_0_0
   + flow_15_11_0_0 + flow_16_11_0_0 = 1
 one_parent_12: edge_0_12_0_0 + edge_1_12_0_0 + edge_2_12_0_0
   + edge_3_12_0_0 + edge_4_12_0_0 + edge_5_12_0_0 + edge_6_12_0_0
   + edge_7_12_0_0 + edge_8_12_0_0 + edge_9_12_0_0 + edge_10_12_0_0
   + edge_11_12_0_0 + edge_14_12_0_0 + edge_16_12_0_0 = 1
 consume_one_flow_unit_12: flow_0_12_0_0 + flow_1_12_0_0 + flow_2_12_0_0
   + flow_3_12_0_0 + flow_4_12_0_0 + flow_5_12_0_0 + flow_6_12_0_0
   + flow_7_12_0_0 + flow_8_12_0_0 + flow_9_12_0_0 + flow_10_12_0_0
   + flow_11_12_0_0 - flow_12_1_0_0 - flow_12_2_0_0 - flow_12_3_0_0
   - flow_12_4_0_0 - flow_12_5_0_0 - flow_12_6_0_0 - flow_12_7_0_0
   - flow_12_8_0_0 - flow_12_9_0_0 - flow_12_10_0_0 - flow_12_11_0_0
   - flow_12_13_0_0 - flow_12_14_0_0 - flow_12_15_0_0 - flow_12_16_0_0
   - flow_12_17_0_0 + flow_14_12_0_0 + flow_16_12_0_0 = 1
 one_parent_13: edge_12_13_0_0 + edge_14_13_0_0 + edge_16_13_0_0
   + edge_17_13_0_0 = 1
 consume_one_flow_unit_13: flow_12_13_0_0 - flow_13_15_0_0 - flow_13_16_0_0
   - flow_13_17_0_0 + flow_14_13_0_0 + flow_16_13_0_0 + flow_17_13_0_0 = 1
 one_parent_14: edge_0_14_0_0 + edge_1_14_0_0 + edge_2_14_0_0
   + edge_3_14_0_0 + edge_4_14_0_0 + edge_5_14_0_0 + edge_7_14_0_0
   + edge_8_14_0_0 + edge_9_14_0_0 + edge_11_14_0_0 + edge_12_14_0_0
   + edge_15_14_0_0 + edge_16_14_0_0 + edge_17_14_0_0 = 1
 consume_one_flow_unit_14: flow_0_14_0_0 + flow_1_14_0_0 + flow_2_14_0_0
   + flow_3_14_0_0 + flow_4_14_0_0 + flow_5_14_0_0 + flow_7_14_0_0
   + flow_8_14_0_0 + flow_9_14_0_0 + flow_11_14_0_0 + flow_12_14_0_0
   - flow_14_1_0_0 - flow_14_2_0_0 - flow_14_3_0_0 - flow_14_4_0_0
   - flow_14_5_0_0 - flow_14_6_0_0 - flow_14_7_0_0 - flow_14_8_0_0
   - flow_14_9_0_0 - flow_14_10_0_0 - flow_14_11_0_0 - flow_14_12_0_0
   - flow_14_13_0_0 - flow_14_15_0_0 - flow_14_16_0_0 - flow_14_17_0_0
   + flow_15_14_0_0 + flow_16_14_0_0 + flow_17_14_0_0 = 1
 one_parent_15: edge_1_15_0_0 + edge_2_15_0_0 + edge_3_15_0_0
   + edge_4_15_0_0 + edge_5_15_0_0 + edge_7_15_0_0 + edge_8_15_0_0
   + edge_9_15_0_0 + edge_10_15_0_0 + edge_11_15_0_0 + edge_12_15_0_0
   + edge_13_15_0_0 + edge_14_15_0_0 + edge_16_15_0_0 + edge_17_15_0_0 = 1
 consume_one_flow_unit_15: flow_1_15_0_0 + flow_2_15_0_0 + flow_3_15_0_0
   + flow_4_15_0_0 + flow_5_15_0_0 + flow_7_15_0_0 + flow_8_15_0_0
   + flow_9_15_0_0 + flow_10_15_0_0 + flow_11_15_0_0 + flow_12_15_0_0
   + flow_13_15_0_0 + flow_14_15_0_0 - flow_15_1_0_0 - flow_15_10_0_0
   - flow_15_11_0_0 - flow_15_14_0_0 - flow_15_16_0_0 - flow_15_17_0_0
   + flow_16_15_0_0 + flow_17_15_0_0 = 1
 one_parent_16: edge_1_16_0_0 + edge_2_16_0_0 + edge_3_16_0_0
   + edge_4_16_0_0 + edge_5_16_0_0 + edge_7_16_0_0 + edge_8_16_0_0
   + edge_9_16_0_0 + edge_11_16_0_0 + edge_12_16_0_0 + edge_13_16_0_0
   + edge_14_16_0_0 + edge_15_16_0_0 + edge_17_16_0_0 = 1
 consume_one_flow_unit_16: flow_1_16_0_0 + flow_2_16_0_0 + flow_3_16_0_0
   + flow_4_16_0_0 + flow_5_16_0_0 + flow_7_16_0_0 + flow_8_16_0_0
   + flow_9_16_0_0 + flow_11_16_0_0 + flow_12_16_0_0 + flow_13_16_0_0
   + flow_14_16_0_0 + flow_15_16_0_0 - flow_16_2_0_0 - flow_16_3_0_0
   - flow_16_4_0_0 - flow_16_5_0_0 - flow_16_6_0_0 - flow_16_7_0_0
   - flow_16_8_0_0 - flow_16_9_0_0 - flow_16_10_0_0 - flow_16_11_0_0
   - flow_16_12_0_0 - flow_16_13_0_0 - flow_16_14_0_0 - flow_16_15_0_0
   - flow_16_17_0_0 + flow_17_16_0_0 = 1
 one_parent_17: edge_1_17_0_0 + edge_2_17_0_0 + edge_3_17_0_0
   + edge_7_17_0_0 + edge_9_17_0_0 + edge_12_17_0_0 + edge_13_17_0_0
   + edge_14_17_0_0 + edge_15_17_0_0 + edge_16_17_0_0 = 1
 consume_one_flow_unit_17: flow_1_17_0_0 + flow_2_17_0_0 + flow_3_17_0_0
   + flow_7_17_0_0 + flow_9_17_0_0 + flow_12_17_0_0 + flow_13_17_0_0
   + flow_14_17_0_0 + flow_15_17_0_0 + flow_16_17_0_0 - flow_17_1_0_0
   - flow_17_2_0_0 - flow_17_3_0_0 - flow_17_5_0_0 - flow_17_7_0_0
   - flow_17_8_0_0 - flow_17_9_0_0 - flow_17_10_0_0 - flow_17_13_0_0
   - flow_17_14_0_0 - flow_17_15_0_0 - flow_17_16_0_0 = 1
 root_flow: flow_0_1_0_0 + flow_0_2_0_0 + flow_0_3_0_0 + flow_0_4_0_0
   + flow_0_7_0_0 + flow_0_8_0_0 + flow_0_9_0_0 + flow_0_12_0_0
   + flow_0_14_0_0 = 17
 inactive_no_flow_0_1_0_0: flow_0_1_0_0 - 1000 edge_0_1_0_0 <= 0
 inactive_no_flow_0_2_0_0: flow_0_2_0_0 - 1000 edge_0_2_0_0 <= 0
 inactive_no_flow_0_3_0_0: flow_0_3_0_0 - 1000 edge_0_3_0_0 <= 0
 inactive_no_flow_0_4_0_0: flow_0_4_0_0 - 1000 edge_0_4_0_0 <= 0
 inactive_no_flow_0_7_0_0: flow_0_7_0_0 - 1000 edge_0_7_0_0 <= 0
 inactive_no_flow_0_8_0_0: flow_0_8_0_0 - 1000 edge_0_8_0_0 <= 0
 inactive_no_flow_0_9_0_0: flow_0_9_0_0 - 1000 edge_0_9_0_0 <= 0
 inactive_no_flow_0_12_0_0: flow_0_12_0_0 - 1000 edge_0_12_0_0 <= 0
 inactive_no_flow_0_14_0_0: flow_0_14_0_0 - 1000 edge_0_14_0_0 <= 0
 inactive_no_flow_1_2_0_0: flow_1_2_0_0 - 1000 edge_1_2_0_0 <= 0
 inactive_no_flow_1_3_0_0: flow_1_3_0_0 - 1000 edge_1_3_0_0 <= 0
 inactive_no_flow_1_4_0_0: flow_1_4_0_0 - 1000 edge_1_4_0_0 <= 0
 inactive_no_flow_1_5_0_0: flow_1_5_0_0 - 1000 edge_1_5_0_0 <= 0
 inactive_no_flow_1_7_0_0: flow_1_7_0_0 - 1000 edge_1_7_0_0 <= 0
 inactive_no_flow_1_8_0_0: flow_1_8_0_0 - 1000 edge_1_8_0_0 <= 0
 inactive_no_flow_1_9_0_0: flow_1_9_0_0 - 1000 edge_1_9_0_0 <= 0
 inactive_no_flow_1_10_0_0: flow_1_10_0_0 - 1000 edge_1_10_0_0 <= 0
 inactive_no_flow_1_12_0_0: flow_1_12_0_0 - 1000 edge_1_12_0_0 <= 0
 inactive_no_flow_1_14_0_0: flow_1_14_0_0 - 1000 edge_1_14_0_0 <= 0
 inactive_no_flow_1_15_0_0: flow_1_15_0_0 - 1000 edge_1_15_0_0 <= 0
 inactive_no_flow_1_16_0_0: flow_1_16_0_0 - 1000 edge_1_16_0_0 <= 0
 inactive_no_flow_1_17_0_0: flow_1_17_0_0 - 1000 edge_1_17_0_0 <= 0
 inactive_no_flow_2_1_0_0: flow_2_1_0_0 - 1000 edge_2_1_0_0 <= 0
 inactive_no_flow_2_3_0_0: flow_2_3_0_0 - 1000 edge_2_3_0_0 <= 0
 inactive_no_flow_2_4_0_0: flow_2_4_0_0 - 1000 edge_2_4_0_0 <= 0
 inactive_no_flow_2_5_0_0: flow_2_5_0_0 - 1000 edge_2_5_0_0 <= 0
 inactive_no_flow_2_6_0_0: flow_2_6_0_0 - 1000 edge_2_6_0_0 <= 0
 inactive_no_flow_2_7_0_0: flow_2_7_0_0 - 1000 edge_2_7_0_0 <= 0
 inactive_no_flow_2_8_0_0: flow_2_8_0_0 - 1000 edge_2_8_0_0 <= 0
 inactive_no_flow_2_9_0_0: flow_2_9_0_0 - 1000 edge_2_9_0_0 <= 0
 inactive_no_flow_2_10_0_0: flow_2_10_0_0 - 1000 edge_2_10_0_0 <= 0
 inactive_no_flow_2_11_0_0: flow_2_11_0_0 - 1000 edge_2_11_0_0 <= 0
 inactive_no_flow_2_12_0_0: flow_2_12_0_0 - 1000 edge_2_12_0_0 <= 0
 inactive_no_flow_2_14_0_0: flow_2_14_0_0 - 1000 edge_2_14_0_0 <= 0
 inactive_no_flow_2_15_0_0: flow_2_15_0_0 - 1000 edge_2_15_0_0 <= 0
 inactive_no_flow_2_16_0_0: flow_2_16_0_0 - 1000 edge_2_16_0_0 <= 0
 inactive_no_flow_2_17_0_0: flow_2_17_0_0 - 1000 edge_2_17_0_0 <= 0
 inactive_no_flow_3_1_0_0: flow_3_1_0_0 - 1000 edge_3_1_0_0 <= 0
 inactive_no_flow_3_2_0_0: flow_3_2_0_0 - 1000 edge_3_2_0_0 <= 0
 inactive_no_flow_3_4_0_0: flow_3_4_0_0 - 1000 edge_3_4_0_0 <= 0
 inactive_no_flow_3_5_0_0: flow_3_5_0_0 - 1000 edge_3_5_0_0 <= 0
 inactive_no_flow_3_6_0_0: flow_3_6_0_0 - 1000 edge_3_6_0_0 <= 0
 inactive_no_flow_3_7_0_0: flow_3_7_0_0 - 1000 edge_3_7_0_0 <= 0
 inactive_no_flow_3_8_0_0: flow_3_8_0_0 - 1000 edge_3_8_0_0 <= 0
 inactive_no_flow_3_9_0_0: flow_3_9_0_0 - 1000 edge_3_9_0_0 <= 0
 inactive_no_flow_3_10_0_0: flow_3_10_0_0 - 1000 edge_3_10_0_0 <= 0
 inactive_no_flow_3_11_0_0: flow_3_11_0_0 - 1000 edge_3_11_0_0 <= 0
 inactive_no_flow_3_12_0_0: flow_3_12_0_0 - 1000 edge_3_12_0_0 <= 0
 inactive_no_flow_3_14_0_0: flow_3_14_0_0 - 1000 edge_3_14_0_0 <= 0
 inactive_no_flow_3_15_0_0: flow_3_15_0_0 - 1000 edge_3_15_0_0 <= 0
 inactive_no_flow_3_16_0_0: flow_3_16_0_0 - 1000 edge_3_16_0_0 <= 0
 inactive_no_flow_3_17_0_0: flow_3_17_0_0 - 1000 edge_3_17_0_0 <= 0
 inactive_no_flow_4_1_0_0: flow_4_1_0_0 - 1000 edge_4_1_0_0 <= 0
 inactive_no_flow_4_2_0_0: flow_4_2_0_0 - 1000 edge_4_2_0_0 <= 0
 inactive_no_flow_4_3_0_0: flow_4_3_0_0 - 1000 edge_4_3_0_0 <= 0
 inactive_no_flow_4_5_0_0: flow_4_5_0_0 - 1000 edge_4_5_0_0 <= 0
 inactive_no_flow_4_7_0_0: flow_4_7_0_0 - 1000 edge_4_7_0_0 <= 0
 inactive_no_flow_4_8_0_0: flow_4_8_0_0 - 1000 edge_4_8_0_0 <= 0
 inactive_no_flow_4_9_0_0: flow_4_9_0_0 - 1000 edge_4_9_0_0 <= 0
 inactive_no_flow_4_11_0_0: flow_4_11_0_0 - 1000 edge_4_11_0_0 <= 0
 inactive_no_flow_4_12_0_0: flow_4_12_0_0 - 1000 edge_4_12_0_0 <= 0
 inactive_no_flow_4_14_0_0: flow_4_14_0_0 - 1000 edge_4_14_0_0 <= 0
 inactive_no_flow_4_15_0_0: flow_4_15_0_0 - 1000 edge_4_15_0_0 <= 0
 inactive_no_flow_4_16_0_0: flow_4_16_0_0 - 1000 edge_4_16_0_0 <= 0
 inactive_no_flow_5_2_0_0: flow_5_2_0_0 - 1000 edge_5_2_0_0 <= 0
 inactive_no_flow_5_3_0_0: flow_5_3_0_0 - 1000 edge_5_3_0_0 <= 0
 inactive_no_flow_5_4_0_0: flow_5_4_0_0 - 1000 edge_5_4_0_0 <= 0
 inactive_no_flow_5_6_0_0: flow_5_6_0_0 - 1000 edge_5_6_0_0 <= 0
 inactive_no_flow_5_7_0_0: flow_5_7_0_0 - 1000 edge_5_7_0_0 <= 0
 inactive_no_flow_5_8_0_0: flow_5_8_0_0 - 1000 edge_5_8_0_0 <= 0
 inactive_no_flow_5_9_0_0: flow_5_9_0_0 - 1000 edge_5_9_0_0 <= 0
 inactive_no_flow_5_10_0_0: flow_5_10_0_0 - 1000 edge_5_10_0_0 <= 0
 inactive_no_flow_5_11_0_0: flow_5_11_0_0 - 1000 edge_5_11_0_0 <= 0
 inactive_no_flow_5_12_0_0: flow_5_12_0_0 - 1000 edge_5_12_0_0 <= 0
 inactive_no_flow_5_14_0_0: flow_5_14_0_0 - 1000 edge_5_14_0_0 <= 0
 inactive_no_flow_5_15_0_0: flow_5_15_0_0 - 1000 edge_5_15_0_0 <= 0
 inactive_no_flow_5_16_0_0: flow_5_16_0_0 - 1000 edge_5_16_0_0 <= 0
 inactive_no_flow_6_5_0_0: flow_6_5_0_0 - 1000 edge_6_5_0_0 <= 0
 inactive_no_flow_6_11_0_0: flow_6_11_0_0 - 1000 edge_6_11_0_0 <= 0
 inactive_no_flow_6_12_0_0: flow_6_12_0_0 - 1000 edge_6_12_0_0 <= 0
 inactive_no_flow_7_1_0_0: flow_7_1_0_0 - 1000 edge_7_1_0_0 <= 0
 inactive_no_flow_7_2_0_0: flow_7_2_0_0 - 1000 edge_7_2_0_0 <= 0
 inactive_no_flow_7_3_0_0: flow_7_3_0_0 - 1000 edge_7_3_0_0 <= 0
 inactive_no_flow_7_4_0_0: flow_7_4_0_0 - 1000 edge_7_4_0_0 <= 0
 inactive_no_flow_7_5_0_0: flow_7_5_0_0 - 1000 edge_7_5_0_0 <= 0
 inactive_no_flow_7_6_0_0: flow_7_6_0_0 - 1000 edge_7_6_0_0 <= 0
 inactive_no_flow_7_8_0_0: flow_7_8_0_0 - 1000 edge_7_8_0_0 <= 0
 inactive_no_flow_7_9_0_0: flow_7_9_0_0 - 1000 edge_7_9_0_0 <= 0
 inactive_no_flow_7_10_0_0: flow_7_10_0_0 - 1000 edge_7_10_0_0 <= 0
 inactive_no_flow_7_11_0_0: flow_7_11_0_0 - 1000 edge_7_11_0_0 <= 0
 inactive_no_flow_7_12_0_0: flow_7_12_0_0 - 1000 edge_7_12_0_0 <= 0
 inactive_no_flow_7_14_0_0: flow_7_14_0_0 - 1000 edge_7_14_0_0 <= 0
 inactive_no_flow_7_15_0_0: flow_7_15_0_0 - 1000 edge_7_15_0_0 <= 0
 inactive_no_flow_7_16_0_0: flow_7_16_0_0 - 1000 edge_7_16_0_0 <= 0
 inactive_no_flow_7_17_0_0: flow_7_17_0_0 - 1000 edge_7_17_0_0 <= 0
 inactive_no_flow_8_1_0_0: flow_8_1_0_0 - 1000 edge_8_1_0_0 <= 0
 inactive_no_flow_8_2_0_0: flow_8_2_0_0 - 1000 edge_8_2_0_0 <= 0
 inactive_no_flow_8_3_0_0: flow_8_3_0_0 - 1000 edge_8_3_0_0 <= 0
 inactive_no_flow_8_4_0_0: flow_8_4_0_0 - 1000 edge_8_4_0_0 <= 0
 inactive_no_flow_8_5_0_0: flow_8_5_0_0 - 1000 edge_8_5_0_0 <= 0
 inactive_no_flow_8_6_0_0: flow_8_6_0_0 - 1000 edge_8_6_0_0 <= 0
 inactive_no_flow_8_7_0_0: flow_8_7_0_0 - 1000 edge_8_7_0_0 <= 0
 inactive_no_flow_8_9_0_0: flow_8_9_0_0 - 1000 edge_8_9_0_0 <= 0
 inactive_no_flow_8_10_0_0: flow_8_10_0_0 - 1000 edge_8_10_0_0 <= 0
 inactive_no_flow_8_11_0_0: flow_8_11_0_0 - 1000 edge_8_11_0_0 <= 0
 inactive_no_flow_8_12_0_0: flow_8_12_0_0 - 1000 edge_8_12_0_0 <= 0
 inactive_no_flow_8_14_0_0: flow_8_14_0_0 - 1000 edge_8_14_0_0 <= 0
 inactive_no_flow_8_15_0_0: flow_8_15_0_0 - 1000 edge_8_15_0_0 <= 0
 inactive_no_flow_8_16_0_0: flow_8_16_0_0 - 1000 edge_8_16_0_0 <= 0
 inactive_no_flow_9_1_0_0: flow_9_1_0_0 - 1000 edge_9_1_0_0 <= 0
 inactive_no_flow_9_2_0_0: flow_9_2_0_0 - 1000 edge_9_2_0_0 <= 0
 inactive_no_flow_9_3_0_0: flow_9_3_0_0 - 1000 edge_9_3_0_0 <= 0
 inactive_no_flow_9_4_0_0: flow_9_4_0_0 - 1000 edge_9_4_0_0 <= 0
 inactive_no_flow_9_5_0_0: flow_9_5_0_0 - 1000 edge_9_5_0_0 <= 0
 inactive_no_flow_9_6_0_0: flow_9_6_0_0 - 1000 edge_9_6_0_0 <= 0
 inactive_no_flow_9_7_0_0: flow_9_7_0_0 - 1000 edge_9_7_0_0 <= 0
 inactive_no_flow_9_8_0_0: flow_9_8_0_0 - 1000 edge_9_8_0_0 <= 0
 inactive_no_flow_9_10_0_0: flow_9_10_0_0 - 1000 edge_9_10_0_0 <= 0
 inactive_no_flow_9_11_0_0: flow_9_11_0_0 - 1000 edge_9_11_0_0 <= 0
 inactive_no_flow_9_12_0_0: flow_9_12_0_0 - 1000 edge_9_12_0_0 <= 0
 inactive_no_flow_9_14_0_0: flow_9_14_0_0 - 1000 edge_9_14_0_0 <= 0
 inactive_no_flow_9_15_0_0: flow_9_15_0_0 - 1000 edge_9_15_0_0 <= 0
 inactive_no_flow_9_16_0_0: flow_9_16_0_0 - 1000 edge_9_16_0_0 <= 0
 inactive_no_flow_9_17_0_0: flow_9_17_0_0 - 1000 edge_9_17_0_0 <= 0
 inactive_no_flow_10_2_0_0: flow_10_2_0_0 - 1000 edge_10_2_0_0 <= 0
 inactive_no_flow_10_7_0_0: flow_10_7_0_0 - 1000 edge_10_7_0_0 <= 0
 inactive_no_flow_10_11_0_0: flow_10_11_0_0 - 1000 edge_10_11_0_0 <= 0
 inactive_no_flow_10_12_0_0: flow_10_12_0_0 - 1000 edge_10_12_0_0 <= 0
 inactive_no_flow_10_15_0_0: flow_10_15_0_0 - 1000 edge_10_15_0_0 <= 0
 inactive_no_flow_11_1_0_0: flow_11_1_0_0 - 1000 edge_11_1_0_0 <= 0
 inactive_no_flow_11_2_0_0: flow_11_2_0_0 - 1000 edge_11_2_0_0 <= 0
 inactive_no_flow_11_4_0_0: flow_11_4_0_0 - 1000 edge_11_4_0_0 <= 0
 inactive_no_flow_11_5_0_0: flow_11_5_0_0 - 1000 edge_11_5_0_0 <= 0
 inactive_no_flow_11_7_0_0: flow_11_7_0_0 - 1000 edge_11_7_0_0 <= 0
 inactive_no_flow_11_8_0_0: flow_11_8_0_0 - 1000 edge_11_8_0_0 <= 0
 inactive_no_flow_11_9_0_0: flow_11_9_0_0 - 1000 edge_11_9_0_0 <= 0
 inactive_no_flow_11_10_0_0: flow_11_10_0_0 - 1000 edge_11_10_0_0 <= 0
 inactive_no_flow_11_12_0_0: flow_11_12_0_0 - 1000 edge_11_12_0_0 <= 0
 inactive_no_flow_11_14_0_0: flow_11_14_0_0 - 1000 edge_11_14_0_0 <= 0
 inactive_no_flow_11_15_0_0: flow_11_15_0_0 - 1000 edge_11_15_0_0 <= 0
 inactive_no_flow_11_16_0_0: flow_11_16_0_0 - 1000 edge_11_16_0_0 <= 0
 inactive_no_flow_12_1_0_0: flow_12_1_0_0 - 1000 edge_12_1_0_0 <= 0
 inactive_no_flow_12_2_0_0: flow_12_2_0_0 - 1000 edge_12_2_0_0 <= 0
 inactive_no_flow_12_3_0_0: flow_12_3_0_0 - 1000 edge_12_3_0_0 <= 0
 inactive_no_flow_12_4_0_0: flow_12_4_0_0 - 1000 edge_12_4_0_0 <= 0
 inactive_no_flow_12_5_0_0: flow_12_5_0_0 - 1000 edge_12_5_0_0 <= 0
 inactive_no_flow_12_6_0_0: flow_12_6_0_0 - 1000 edge_12_6_0_0 <= 0
 inactive_no_flow_12_7_0_0: flow_12_7_0_0 - 1000 edge_12_7_0_0 <= 0
 inactive_no_flow_12_8_0_0: flow_12_8_0_0 - 1000 edge_12_8_0_0 <= 0
 inactive_no_flow_12_9_0_0: flow_12_9_0_0 - 1000 edge_12_9_0_0 <= 0
 inactive_no_flow_12_10_0_0: flow_12_10_0_0 - 1000 edge_12_10_0_0 <= 0
 inactive_no_flow_12_11_0_0: flow_12_11_0_0 - 1000 edge_12_11_0_0 <= 0
 inactive_no_flow_12_13_0_0: flow_12_13_0_0 - 1000 edge_12_13_0_0 <= 0
 inactive_no_flow_12_14_0_0: flow_12_14_0_0 - 1000 edge_12_14_0_0 <= 0
 inactive_no_flow_12_15_0_0: flow_12_15_0_0 - 1000 edge_12_15_0_0 <= 0
 inactive_no_flow_12_16_0_0: flow_12_16_0_0 - 1000 edge_12_16_0_0 <= 0
 inactive_no_flow_12_17_0_0: flow_12_17_0_0 - 1000 edge_12_17_0_0 <= 0
 inactive_no_flow_13_15_0_0: flow_13_15_0_0 - 1000 edge_13_15_0_0 <= 0
 inactive_no_flow_13_16_0_0: flow_13_16_0_0 - 1000 edge_13_16_0_0 <= 0
 inactive_no_flow_13_17_0_0: flow_13_17_0_0 - 1000 edge_13_17_0_0 <= 0
 inactive_no_flow_14_1_0_0: flow_14_1_0_0 - 1000 edge_14_1_0_0 <= 0
 inactive_no_flow_14_2_0_0: flow_14_2_0_0 - 1000 edge_14_2_0_0 <= 0
 inactive_no_flow_14_3_0_0: flow_14_3_0_0 - 1000 edge_14_3_0_0 <= 0
 inactive_no_flow_14_4_0_0: flow_14_4_0_0 - 1000 edge_14_4_0_0 <= 0
 inactive_no_flow_14_5_0_0: flow_14_5_0_0 - 1000 edge_14_5_0_0 <= 0
 inactive_no_flow_14_6_0_0: flow_14_6_0_0 - 1000 edge_14_6_0_0 <= 0
 inactive_no_flow_14_7_0_0: flow_14_7_0_0 - 1000 edge_14_7_0_0 <= 0
 inactive_no_flow_14_8_0_0: flow_14_8_0_0 - 1000 edge_14_8_0_0 <= 0
 inactive_no_flow_14_9_0_0: flow_14_9_0_0 - 1000 edge_14_9_0_0 <= 0
 inactive_no_flow_14_10_0_0: flow_14_10_0_0 - 1000 edge_14_10_0_0 <= 0
 inactive_no_flow_14_11_0_0: flow_14_11_0_0 - 1000 edge_14_11_0_0 <= 0
 inactive_no_flow_14_12_0_0: flow_14_12_0_0 - 1000 edge_14_12_0_0 <= 0
 inactive_no_flow_14_13_0_0: flow_14_13_0_0 - 1000 edge_14_13_0_0 <= 0
 inactive_no_flow_14_15_0_0: flow_14_15_0_0 - 1000 edge_14_15_0_0 <= 0
 inactive_no_flow_14_16_0_0: flow_14_16_0_0 - 1000 edge_14_16_0_0 <= 0
 inactive_no_flow_14_17_0_0: flow_14_17_0_0 - 1000 edge_14_17_0_0 <= 0
 inactive_no_flow_15_1_0_0: flow_15_1_0_0 - 1000 edge_15_1_0_0 <= 0
 inactive_no_flow_15_10_0_0: flow_15_10_0_0 - 1000 edge_15_10_0_0 <= 0
 inactive_no_flow_15_11_0_0: flow_15_11_0_0 - 1000 edge_15_11_0_0 <= 0
 inactive_no_flow_15_14_0_0: flow_15_14_0_0 - 1000 edge_15_14_0_0 <= 0
 inactive_no_flow_15_16_0_0: flow_15_16_0_0 - 1000 edge_15_16_0_0 <= 0
 inactive_no_flow_15_17_0_0: flow_15_17_0_0 - 1000 edge_15_17_0_0 <= 0
 inactive_no_flow_16_2_0_0: flow_16_2_0_0 - 1000 edge_16_2_0_0 <= 0
 inactive_no_flow_16_3_0_0: flow_16_3_0_0 - 1000 edge_16_3_0_0 <= 0
 inactive_no_flow_16_4_0_0: flow_16_4_0_0 - 1000 edge_16_4_0_0 <= 0
 inactive_no_flow_16_5_0_0: flow_16_5_0_0 - 1000 edge_16_5_0_0 <= 0
 inactive_no_flow_16_6_0_0: flow_16_6_0_0 - 1000 edge_16_6_0_0 <= 0
 inactive_no_flow_16_7_0_0: flow_16_7_0_0 - 1000 edge_16_7_0_0 <= 0
 inactive_no_flow_16_8_0_0: flow_16_8_0_0 - 1000 edge_16_8_0_0 <= 0
 inactive_no_flow_16_9_0_0: flow_16_9_0_0 - 1000 edge_16_9_0_0 <= 0
 inactive_no_flow_16_10_0_0: flow_16_10_0_0 - 1000 edge_16_10_0_0 <= 0
 inactive_no_flow_16_11_0_0: flow_16_11_0_0 - 1000 edge_16_11_0_0 <= 0
 inactive_no_flow_16_12_0_0: flow_16_12_0_0 - 1000 edge_16_12_0_0 <= 0
 inactive_no_flow_16_13_0_0: flow_16_13_0_0 - 1000 edge_16_13_0_0 <= 0
 inactive_no_flow_16_14_0_0: flow_16_14_0_0 - 1000 edge_16_14_0_0 <= 0
 inactive_no_flow_16_15_0_0: flow_16_15_0_0 - 1000 edge_16_15_0_0 <= 0
 inactive_no_flow_16_17_0_0: flow_16_17_0_0 - 1000 edge_16_17_0_0 <= 0
 inactive_no_flow_17_1_0_0: flow_17_1_0_0 - 1000 edge_17_1_0_0 <= 0
 inactive_no_flow_17_2_0_0: flow_17_2_0_0 - 1000 edge_17_2_0_0 <= 0
 inactive_no_flow_17_3_0_0: flow_17_3_0_0 - 1000 edge_17_3_0_0 <= 0
 inactive_no_flow_17_5_0_0: flow_17_5_0_0 - 1000 edge_17_5_0_0 <= 0
 inactive_no_flow_17_7_0_0: flow_17_7_0_0 - 1000 edge_17_7_0_0 <= 0
 inactive_no_flow_17_8_0_0: flow_17_8_0_0 - 1000 edge_17_8_0_0 <= 0
 inactive_no_flow_17_9_0_0: flow_17_9_0_0 - 1000 edge_17_9_0_0 <= 0
 inactive_no_flow_17_10_0_0: flow_17_10_0_0 - 1000 edge_17_10_0_0 <= 0
 inactive_no_flow_17_13_0_0: flow_17_13_0_0 - 1000 edge_17_13_0_0 <= 0
 inactive_no_flow_17_14_0_0: flow_17_14_0_0 - 1000 edge_17_14_0_0 <= 0
 inactive_no_flow_17_15_0_0: flow_17_15_0_0 - 1000 edge_17_15_0_0 <= 0
 inactive_no_flow_17_16_0_0: flow_17_16_0_0 - 1000 edge_17_16_0_0 <= 0
Bounds
Binaries
 edge_0_1_0_0 edge_0_2_0_0 edge_0_3_0_0 edge_0_4_0_0 edge_0_7_0_0
 edge_0_8_0_0 edge_0_9_0_0 edge_0_12_0_0 edge_0_14_0_0 edge_1_2_0_0
 edge_1_3_0_0 edge_1_4_0_0 edge_1_5_0_0 edge_1_7_0_0 edge_1_8_0_0
 edge_1_9_0_0 edge_1_10_0_0 edge_1_12_0_0 edge_1_14_0_0 edge_1_15_0_0
 edge_1_16_0_0 edge_1_17_0_0 edge_2_1_0_0 edge_2_3_0_0 edge_2_4_0_0
 edge_2_5_0_0 edge_2_6_0_0 edge_2_7_0_0 edge_2_8_0_0 edge_2_9_0_0
 edge_2_10_0_0 edge_2_11_0_0 edge_2_12_0_0 edge_2_14_0_0 edge_2_15_0_0
 edge_2_16_0_0 edge_2_17_0_0 edge_3_1_0_0 edge_3_2_0_0 edge_3_4_0_0
 edge_3_5_0_0 edge_3_6_0_0 edge_3_7_0_0 edge_3_8_0_0 edge_3_9_0_0
 edge_3_10_0_0 edge_3_11_0_0 edge_3_12_0_0 edge_3_14_0_0 edge_3_15_0_0
 edge_3_16_0_0 edge_3_17_0_0 edge_4_1_0_0 edge_4_2_0_0 edge_4_3_0_0
 edge_4_5_0_0 edge_4_7_0_0 edge_4_8_0_0 edge_4_9_0_0 edge_4_11_0_0
 edge_4_12_0_0 edge_4_14_0_0 edge_4_15_0_0 edge_4_16_0_0 edge_5_2_0_0
 edge_5_3_0_0 edge_5_4_0_0 edge_5_6_0_0 edge_5_7_0_0 edge_5_8_0_0
 edge_5_9_0_0 edge_5_10_0_0 edge_5_11_0_0 edge_5_12_0_0 edge_5_14_0_0
 edge_5_15_0_0 edge_5_16_0_0 edge_6_5_0_0 edge_6_11_0_0 edge_6_12_0_0
 edge_7_1_0_0 edge_7_2_0_0 edge_7_3_0_0 edge_7_4_0_0 edge_7_5_0_0
 edge_7_6_0_0 edge_7_8_0_0 edge_7_9_0_0 edge_7_10_0_0 edge_7_11_0_0
 edge_7_12_0_0 edge_7_14_0_0 edge_7_15_0_0 edge_7_16_0_0 edge_7_17_0_0
 edge_8_1_0_0 edge_8_2_0_0 edge_8_3_0_0 edge_8_4_0_0 edge_8_5_0_0
 edge_8_6_0_0 edge_8_7_0_0 edge_8_9_0_0 edge_8_10_0_0 edge_8_11_0_0
 edge_8_12_0_0 edge_8_14_0_0 edge_8_15_0_0 edge_8_16_0_0 edge_9_1_0_0
 edge_9_2_0_0 edge_9_3_0_0 edge_9_4_0_0 edge_9_5_0_0 edge_9_6_0_0
 edge_9_7_0_0 edge_9_8_0_0 edge_9_10_0_0 edge_9_11_0_0 edge_9_12_0_0
 edge_9_14_0_0 edge_9_15_0_0 edge_9_16_0_0 edge_9_17_0_0 edge_10_2_0_0
 edge_10_7_0_0 edge_10_11_0_0 edge_10_12_0_0 edge_10_15_0_0 edge_11_1_0_0
 edge_11_2_0_0 edge_11_4_0_0 edge_11_5_0_0 edge_11_7_0_0 edge_11_8_0_0
 edge_11_9_0_0 edge_11_10_0_0 edge_11_12_0_0 edge_11_14_0_0 edge_11_15_0_0
 edge_11_16_0_0 edge_12_1_0_0 edge_12_2_0_0 edge_12_3_0_0 edge_12_4_0_0
 edge_12_5_0_0 edge_12_6_0_0 edge_12_7_0_0 edge_12_8_0_0 edge_12_9_0_0
 edge_12_10_0_0 edge_12_11_0_0 edge_12_13_0_0 edge_12_14_0_0 edge_12_15_0_0
 edge_12_16_0_0 edge_12_17_0_0 edge_13_15_0_0 edge_13_16_0_0 edge_13_17_0_0
 edge_14_1_0_0 edge_14_2_0_0 edge_14_3_0_0 edge_14_4_0_0 edge_14_5_0_0
 edge_14_6_0_0 edge_14_7_0_0 edge_14_8_0_0 edge_14_9_0_0 edge_14_10_0_0
 edge_14_11_0_0 edge_14_12_0_0 edge_14_13_0_0 edge_14_15_0_0 edge_14_16_0_0
 edge_14_17_0_0 edge_15_1_0_0 edge_15_10_0_0 edge_15_11_0_0 edge_15_14_0_0
 edge_15_16_0_0 edge_15_17_0_0 edge_16_2_0_0 edge_16_3_0_0 edge_16_4_0_0
 edge_16_5_0_0 edge_16_6_0_0 edge_16_7_0_0 edge_16_8_0_0 edge_16_9_0_0
 edge_16_10_0_0 edge_16_11_0_0 edge_16_12_0_0 edge_16_13_0_0 edge_16_14_0_0
 edge_16_15_0_0 edge_16_17_0_0 edge_17_1_0_0 edge_17_2_0_0 edge_17_3_0_0
 edge_17_5_0_0 edge_17_7_0_0 edge_17_8_0_0 edge_17_9_0_0 edge_17_10_0_0
 edge_17_13_0_0 edge_17_14_0_0 edge_17_15_0_0 edge_17_16_0_0
End
